Traveling Salesman Problem/TSP_generados/Aleatorio1620396169_17.tsp
NAME: Aleatorio1620396169_17.tsp
COMMENT: Randomly generated scenario
TYPE: TSP
DIMENSION: 17
EDGE_WEIGHT_TYPE: ATT
NODE_COORD_SECTION
1 18.08 24.4
2 33.04 10.97
3 48.36 27.26
4 23.7 37.69
5 27.16 32.24
6 43.64 28.77
7 36.14 41.34
8 15.51 46.26
9 16.14 9.15
10 30.7 34.91
11 2.06 19.15
12 1.71 28.96
13 12.94 9.32
14 48.45 43.4
15 21.54 11.47
16 31.21 5.21
17 9.32 30.17
