Traveling Salesman Problem/TSP_generados/Aleatorio1620396169_17.opt.tour
NAME: Aleatorio1620396169_17.opt.tour
COMMENT: Optimal solution for Aleatorio1620396169_17 (176.790267699286)
TYPE: TOUR
DIMENSION: 17
TOUR_SECTION
1 17 12 11 13 9 15 16 2 6 3 14 7 10 5 4 8
-1
EOF
